%%% static parameters %%%
timespan = 1;
Fact = [2];
Distr1 = [5];
Distr2 = [10];
Clients_N = [120];
Demand_W = [15];
Lt0 = [4];
Lt1 = [4];
SS_ = [0.85];
DS_D = [5];
K = [200];
MA = [500];
%%% dynamic parameters %%%
lost_ratio_sales_ret_th = 0.36377848782034183;
lost_ratio_sales_ret_w = 76;
lost_ratio_sales_dis_th = 0.5282204103860267;
lost_ratio_sales_dis_w = 81;
lost_ratio_sales_fac_th = 0.25681650973418224;
lost_ratio_sales_fac_w = 67;
stock_customer_MA_mean_relative_th = 0.8418321938288871;
stock_customer_MA_mean_relative_w = 68;
stock_distributor_MA_mean_relative_th = 0.6546383828753324;
stock_distributor_MA_mean_relative_w = 17;
stock_retailer_MA_mean_relative_th = 0.33158869218836584;
stock_retailer_MA_mean_relative_w = 28;
stock_factory_MA_mean_relative_th = 0.8564400751457995;
stock_factory_MA_mean_relative_w = 39;
